p cnf 14 29
-14 -13 6 0
-14 -12 6 0
-14 12 2 0
14 -11 -4 0
-14 11 3 0
14 -11 3 0
-14 -11 -2 0
-14 -10 6 0
14 9 6 0
14 -5 3 0
-14 -2 -1 0
13 9 -4 0
-13 7 3 0
-13 7 -1 0
12 10 7 0
-12 9 5 0
11 -9 4 0
-11 -6 -5 0
11 -6 -5 0
11 6 -2 0
-11 6 -1 0
11 -3 2 0
10 5 2 0
10 -4 -2 0
10 4 1 0
9 8 -1 0
-9 -6 3 0
-8 5 -3 0
-8 -5 -2 0
